12 40 9 10
20 3 16 17 17 14 8 16 16 8 9 8 8 10 2 17 16 13 10 12 9 19 8 17 7 10 12 12 11 7 3 1 12 4 2 17 16 10 7 17 
15.2 14.02 2.4 4.28 11.84 5.31 4.39 0.89 12.35 10.77 5.92 10.19 14.02 11.15 11.23 1.48 15.5 7.09 0.31 10.69 3.33 15.74 11.63 11.62 14.75 8.12 9.52 1.12 6.07 7.09 1.95 11.04 1.64 8.72 7.82 7.44 1.88 4.14 1.14 15.42 
3.89 9.59 2.72 5.31 14.05 9.42 8.43 1.93 4.09 9.07 15.99 1.29 14.92 11.96 3.65 12.56 11.25 15.39 0.15 1.75 11.81 1.32 3.43 8.13 6.11 13.44 1.03 5.12 5.97 14.31 11.02 12.97 8.84 5.21 3.26 5.62 4.52 6.76 12.59 15.48 
3.05 3.57 9.69 0.29 15.55 4.28 6.97 6.13 15.16 15.9 5.82 8.89 5.62 5.89 2.28 12.22 6.13 9.82 15.54 4.55 9.95 9.14 15.26 1.01 13.29 1.31 3.99 14.19 14.42 6.15 13.92 2.76 5.96 0.11 11.22 7.53 1.3 4.51 1.43 1.99 
2.69 2.01 2.73 3.04 11.13 7.91 3.07 3.24 8.54 2.14 13.42 10.94 0.34 9.63 5.46 13.16 4.75 10.07 14.56 0.36 10.04 15.26 5.23 10.86 9.36 0.63 0.83 8.53 9.17 0.92 3.09 9.03 10.4 7.83 9.45 3.75 12.33 10.3 9.5 13.03 
13.92 13.42 0.61 12.89 9.42 14.73 10.31 14.88 3.72 0.9 2.22 0.36 11.98 7.05 12.62 7.1 10.5 13.92 10.44 6.57 1.21 2.53 7.59 1.44 13.29 0.64 0.01 9.37 0.09 4.56 11.47 6.64 0.75 4.4 8.78 10.07 8.73 0.46 14.14 5.29 
6.32 0.23 2.81 10.47 13.37 5.38 11.66 3.97 4.03 15.9 14.78 5.03 0.04 4.1 2.04 7.48 12.19 4.29 4.02 8.79 5.3 12.66 1.32 8.31 10.6 15.69 1.5 4.78 15.15 6.25 10.34 6.25 8.92 5.77 11.7 1.95 6.75 10.88 8.61 0.6 
12.04 3.8 15.19 6.43 3.14 13.14 14.34 6.01 0.4 7.74 1.04 6.94 4.94 6.4 6.04 11.09 3.85 9.39 9.26 13.1 11.01 10.14 3.18 10.51 5.13 12.02 3.83 12.68 15.56 8.92 1.64 8.74 0.03 6.25 3.92 4.5 11.36 7.41 14.46 9.02 
0.32 8.6 3.67 8.43 10.96 5 10.06 3.99 3.37 0.92 4.31 15.47 12.23 2.55 12.39 12.58 10.34 3.92 6.87 15.46 13.59 11.44 11.23 9.82 11.21 1.51 9.21 4.88 12.9 15.34 12.58 5.71 11.69 6.94 13.76 3.57 13.37 1.47 12.08 15.56 
14.48 0.47 11.81 0.91 3.72 5.61 8.37 12.32 3.08 2.86 12.3 8.93 2.74 1.34 6.09 6.65 2.93 8.35 3.69 5.05 4.14 1.45 0.92 9.72 11.28 15.18 9.35 4.21 6.99 7.36 3.55 14.26 2.85 5.37 8.14 2.35 13.25 6.67 7.89 12.53 
8 8 8 8 8 8 8 8 8 8 8 8 8 8 8 8 8 8 8 8 8 8 8 8 8 8 8 8 8 8 8 8 8 8 8 8 8 8 8 8 
3.4 14.01 13.91 5.52 12.56 12.88 4.77 2.38 10.13 14.03 15.83 13.55 0.15 12.97 6.33 14.8 3.33 0.83 3.19 6.55 1.92 5.03 7.85 4.15 3.63 1.2 14.04 6.43 1.85 8.51 2.72 11.26 3.05 3.15 0.85 14.53 10.19 4.02 9.75 0.77 
14.72 7.75 11.52 0.89 14.41 11.99 3.99 3.82 4.32 13.34 6.86 3.05 7.88 3.22 14.4 7.97 0.36 11.49 9.84 11.58 5.33 6.34 15.36 11.58 11.69 0.73 7.31 4.8 3.34 6.98 15.45 15.62 8.15 14.7 13.78 12.28 14.38 2.45 6.43 10.85 
1 1 1 1 1 1 1 1 1 1 1 1 1 1 1 1 1 1 1 1 1 1 1 1 1 1 1 1 1 1 1 1 1 1 1 1 1 1 1 1 
1 1 1 1 1 1 1 1 1 1 1 1 1 1 1 1 1 1 1 1 1 1 1 1 1 1 1 1 1 1 1 1 1 1 1 1 1 1 1 1 
1 1 1 1 1 1 1 1 1 1 1 1 1 1 1 1 1 1 1 1 1 1 1 1 1 1 1 1 1 1 1 1 1 1 1 1 1 1 1 1 
1 1 1 1 1 1 1 1 1 1 1 1 1 1 1 1 1 1 1 1 1 1 1 1 1 1 1 1 1 1 1 1 1 1 1 1 1 1 1 1 
1 1 1 1 1 1 1 1 1 1 1 1 1 1 1 1 1 1 1 1 1 1 1 1 1 1 1 1 1 1 1 1 1 1 1 1 1 1 1 1 
1 1 1 1 1 1 1 1 1 1 1 1 1 1 1 1 1 1 1 1 1 1 1 1 1 1 1 1 1 1 1 1 1 1 1 1 1 1 1 1 
1 1 1 1 1 1 1 1 1 1 1 1 1 1 1 1 1 1 1 1 1 1 1 1 1 1 1 1 1 1 1 1 1 1 1 1 1 1 1 1 
1 1 1 1 1 1 1 1 1 1 1 1 1 1 1 1 1 1 1 1 1 1 1 1 1 1 1 1 1 1 1 1 1 1 1 1 1 1 1 1 
1 1 1 1 1 1 1 1 1 1 1 1 1 1 1 1 1 1 1 1 1 1 1 1 1 1 1 1 1 1 1 1 1 1 1 1 1 1 1 1 
1 1 1 1 1 1 1 1 1 1 1 1 1 1 1 1 1 1 1 1 1 1 1 1 1 1 1 1 1 1 1 1 1 1 1 1 1 1 1 1 
1 1 1 1 1 1 1 1 1 1 1 1 1 1 1 1 1 1 1 1 1 1 1 1 1 1 1 1 1 1 1 1 1 1 1 1 1 1 1 1 
1 1 1 1 1 1 1 1 1 1 1 1 1 1 1 1 1 1 1 1 1 1 1 1 1 1 1 1 1 1 1 1 1 1 1 1 1 1 1 1 
0.01 0.01 0.01 0.01 0.01 0.01 0.01 0.01 0.01 0.01 0.01 0.01 0.01 0.01 0.01 0.01 0.01 0.01 0.01 0.01 0.01 0.01 0.01 0.01 0.01 0.01 0.01 0.01 0.01 0.01 0.01 0.01 0.01 0.01 0.01 0.01 0.01 0.01 0.01 0.01 
0.02 0.02 0.02 0.02 0.02 0.02 0.02 0.02 0.02 0.02 0.02 0.02 0.02 0.02 0.02 0.02 0.02 0.02 0.02 0.02 0.02 0.02 0.02 0.02 0.02 0.02 0.02 0.02 0.02 0.02 0.02 0.02 0.02 0.02 0.02 0.02 0.02 0.02 0.02 0.02 
0.03 0.03 0.03 0.03 0.03 0.03 0.03 0.03 0.03 0.03 0.03 0.03 0.03 0.03 0.03 0.03 0.03 0.03 0.03 0.03 0.03 0.03 0.03 0.03 0.03 0.03 0.03 0.03 0.03 0.03 0.03 0.03 0.03 0.03 0.03 0.03 0.03 0.03 0.03 0.03 
0.04 0.04 0.04 0.04 0.04 0.04 0.04 0.04 0.04 0.04 0.04 0.04 0.04 0.04 0.04 0.04 0.04 0.04 0.04 0.04 0.04 0.04 0.04 0.04 0.04 0.04 0.04 0.04 0.04 0.04 0.04 0.04 0.04 0.04 0.04 0.04 0.04 0.04 0.04 0.04 
0.05 0.05 0.05 0.05 0.05 0.05 0.05 0.05 0.05 0.05 0.05 0.05 0.05 0.05 0.05 0.05 0.05 0.05 0.05 0.05 0.05 0.05 0.05 0.05 0.05 0.05 0.05 0.05 0.05 0.05 0.05 0.05 0.05 0.05 0.05 0.05 0.05 0.05 0.05 0.05 
0.06 0.06 0.06 0.06 0.06 0.06 0.06 0.06 0.06 0.06 0.06 0.06 0.06 0.06 0.06 0.06 0.06 0.06 0.06 0.06 0.06 0.06 0.06 0.06 0.06 0.06 0.06 0.06 0.06 0.06 0.06 0.06 0.06 0.06 0.06 0.06 0.06 0.06 0.06 0.06 
0.07 0.07 0.07 0.07 0.07 0.07 0.07 0.07 0.07 0.07 0.07 0.07 0.07 0.07 0.07 0.07 0.07 0.07 0.07 0.07 0.07 0.07 0.07 0.07 0.07 0.07 0.07 0.07 0.07 0.07 0.07 0.07 0.07 0.07 0.07 0.07 0.07 0.07 0.07 0.07 
0.08 0.08 0.08 0.08 0.08 0.08 0.08 0.08 0.08 0.08 0.08 0.08 0.08 0.08 0.08 0.08 0.08 0.08 0.08 0.08 0.08 0.08 0.08 0.08 0.08 0.08 0.08 0.08 0.08 0.08 0.08 0.08 0.08 0.08 0.08 0.08 0.08 0.08 0.08 0.08 
0.09 0.09 0.09 0.09 0.09 0.09 0.09 0.09 0.09 0.09 0.09 0.09 0.09 0.09 0.09 0.09 0.09 0.09 0.09 0.09 0.09 0.09 0.09 0.09 0.09 0.09 0.09 0.09 0.09 0.09 0.09 0.09 0.09 0.09 0.09 0.09 0.09 0.09 0.09 0.09 
0.1 0.1 0.1 0.1 0.1 0.1 0.1 0.1 0.1 0.1 0.1 0.1 0.1 0.1 0.1 0.1 0.1 0.1 0.1 0.1 0.1 0.1 0.1 0.1 0.1 0.1 0.1 0.1 0.1 0.1 0.1 0.1 0.1 0.1 0.1 0.1 0.1 0.1 0.1 0.1 
0.5 0.5 0.5 0.5 0.5 0.5 0.5 0.5 0.5 0.5 0.5 0.5 0.5 0.5 0.5 0.5 0.5 0.5 0.5 0.5 0.5 0.5 0.5 0.5 0.5 0.5 0.5 0.5 0.5 0.5 0.5 0.5 0.5 0.5 0.5 0.5 0.5 0.5 0.5 0.5 
1 1 1 1 1 1 1 1 1 1 1 1 1 1 1 1 1 1 1 1 1 1 1 1 1 1 1 1 1 1 1 1 1 1 1 1 1 1 1 1 
